w = 32;

n = 27;

r2 = array1d(1..2, [3, 3]);

r3 = array1d(1..2, [3, 4]);

r4 = array1d(1..2, [3, 5]);

r5 = array1d(1..2, [3, 6]);

r6 = array1d(1..2, [3, 7]);

r7 = array1d(1..2, [3, 8]);

r8 = array1d(1..2, [3, 9]);

r9 = array1d(1..2, [3, 10]);

r10 = array1d(1..2, [3, 11]);

r11 = array1d(1..2, [3, 12]);

r12 = array1d(1..2, [3, 13]);

r13 = array1d(1..2, [3, 14]);

r14 = array1d(1..2, [3, 15]);

r15 = array1d(1..2, [3, 18]);

r16 = array1d(1..2, [3, 22]);

r17 = array1d(1..2, [3, 23]);

r18 = array1d(1..2, [3, 24]);

r19 = array1d(1..2, [3, 25]);

r20 = array1d(1..2, [3, 27]);

r21 = array1d(1..2, [4, 3]);

r22 = array1d(1..2, [4, 4]);

r23 = array1d(1..2, [4, 5]);

r24 = array1d(1..2, [4, 6]);

r25 = array1d(1..2, [4, 7]);

r26 = array1d(1..2, [4, 10]);

r27 = array1d(1..2, [4, 11]);

r28 = array1d(1..2, [4, 18]);

